TITL sucrose in P21
CELL 0.71 7.783 8.7364 10.9002 90 102.984 90
ZERR 2 0 0 0 0 0 0
LATT -1

SFAC C H O
UNIT 24 43 22

REM <olex2.extras>
REM <constraints
REM  <item "olex2.constraint.same_group 2 C11a O10a C5a O4a C3a C2a O1a C22a
REM O23a C6a O9a C7a O8a O15a C14a C16a O17a C12a O19a C13a O18a C20a O21a C11b
REM O10b C5b O4b C3b C2b O1b C22b O23b C6b O9b C7b O8b O15b C14b C16b O17b C12b
REM O19b C13b O18b C20b O21b" >
REM >
REM </olex2.extras>

L.S. 1 0 0
PLAN  20
fmap 2 53
acta
EXTI 0.040
BASF -2.201456
TWIN -1 0 0 0 -1 0 0 0 -1 2
WGHT 0.025423 1.089401
FVAR 0.867824

O1a   3    -0.70791 -0.50611 -0.16290  11.00000  0.04963  0.01972  0.06890 =
 -0.00767  0.02498 -0.00902
AFIX 147
H1a   2    -0.63449 -0.57493 -0.15380  11.00000 -1.50000
AFIX 0
O4a   3    -0.69456 -0.09081 -0.13386  11.00000  0.02494  0.01916  0.02272 =
 -0.00002  0.01037 -0.00018
O8a   3    -0.36037 -0.43943 -0.20208  11.00000  0.05160  0.02854  0.03872 =
 0.01054  0.02288  0.01907
AFIX 7
H8a   2    -0.32304 -0.45131 -0.26604  11.00000 -1.50000
AFIX 0
O9a   3    -0.31532 -0.12883 -0.28199  11.00000  0.02237  0.03153  0.03185 =
 0.00121  0.00911 -0.00085
AFIX 147
H9a   2    -0.23764 -0.07041 -0.24617  11.00000 -1.50000
AFIX 0
O10a  3    -0.67152 -0.03918 -0.33990  11.00000  0.01838  0.01344  0.02036 =
 0.00072  0.00265 -0.00032
O15a  3    -0.74679  0.21321 -0.29892  11.00000  0.01541  0.02075  0.02568 =
 -0.00596  0.00114  0.00273
O17a  3    -1.02373  0.06950 -0.18441  11.00000  0.02734  0.03792  0.03935 =
 0.00914  0.00830  0.00152
AFIX 147
H17a  2    -0.92337  0.03645 -0.15930  11.00000 -1.50000
AFIX 0
O18a  3    -1.15182  0.21002 -0.53317  11.00000  0.01563  0.03556  0.03456 =
 0.00755 -0.00112  0.00178
AFIX 147
H18a  2    -1.24436  0.16934 -0.52680  11.00000 -1.50000
AFIX 0
O19a  3    -0.85844 -0.01125 -0.58472  11.00000  0.03017  0.02508  0.02100 =
 -0.00574  0.00502 -0.00222
AFIX 147
H19a  2    -0.83392  0.01521 -0.65092  11.00000 -1.50000
AFIX 0
O21a  3    -0.44183  0.07272 -0.48149  11.00000  0.02552  0.03348  0.03202 =
 0.00599  0.01292  0.00226
AFIX 147
H21a  2    -0.39958 -0.00034 -0.43774  11.00000 -1.50000
AFIX 0
O23a  3    -0.77687 -0.23822  0.06985  11.00000  0.04818  0.03527  0.02641 =
 0.00480  0.01478  0.00751
AFIX 4
H23a  2    -0.78176 -0.15523  0.08643  11.00000 -1.50000
AFIX 0
C2a   1    -0.62064 -0.36256 -0.13706  11.00000  0.02823  0.01716  0.02513 =
 -0.00213  0.00814 -0.00199
AFIX 13
H2a   2    -0.55213 -0.36179 -0.04984  11.00000 -1.20000
AFIX 0
C3a   1    -0.76785 -0.24459 -0.15165  11.00000  0.02426  0.02079  0.02367 =
 0.00139  0.00154 -0.00366
AFIX 13
H3a   2    -0.84423 -0.25297 -0.23611  11.00000 -1.20000
AFIX 0
C5a   1    -0.57734 -0.05043 -0.21105  11.00000  0.01942  0.01476  0.01574 =
 -0.00107  0.00384 -0.00178
AFIX 13
H5a   2    -0.52576  0.04971 -0.18399  11.00000 -1.20000
AFIX 0
C6a   1    -0.42820 -0.16748 -0.19827  11.00000  0.02167  0.02423  0.01448 =
 0.00124  0.00328  0.00124
AFIX 13
H6a   2    -0.35788 -0.16399 -0.11161  11.00000 -1.20000
AFIX 0
C7a   1    -0.49845 -0.32843 -0.22519  11.00000  0.02913  0.02031  0.02098 =
 0.00087  0.00555  0.00663
AFIX 13
H7a   2    -0.56445 -0.33572 -0.31285  11.00000 -1.20000
AFIX 0
C11a  1    -0.69314  0.11528 -0.38737  11.00000  0.01847  0.01303  0.02222 =
 0.00002  0.00393  0.00060
C12a  1    -0.84851  0.11690 -0.50397  11.00000  0.01913  0.01588  0.02204 =
 0.00394  0.00574  0.00060
AFIX 13
H12a  2    -0.83621  0.20847 -0.55322  11.00000 -1.20000
AFIX 0
C13a  1    -1.00764  0.14076 -0.44608  11.00000  0.01860  0.01781  0.02518 =
 0.00440  0.00364  0.00098
AFIX 13
H13a  2    -1.04451  0.04304 -0.41607  11.00000 -1.20000
AFIX 0
C14a  1    -0.93447  0.24645 -0.33455  11.00000  0.01821  0.01593  0.03131 =
 0.00076  0.00696  0.00249
AFIX 13
H14a  2    -0.95058  0.35299 -0.36295  11.00000 -1.20000
AFIX 0
C16a  1    -1.01595  0.22552 -0.22274  11.00000  0.02381  0.03542  0.03090 =
 -0.00533  0.01067  0.00275
AFIX 23
H16a  2    -1.13459  0.26698 -0.24308  11.00000 -1.20000
H16b  2    -0.94839  0.28392 -0.15258  11.00000 -1.20000
AFIX 0
C20a  1    -0.51940  0.17662 -0.40810  11.00000  0.02170  0.02177  0.02990 =
 0.00314  0.00680 -0.00066
AFIX 23
H20a  2    -0.43881  0.19277 -0.32730  11.00000 -1.20000
H20b  2    -0.53925  0.27452 -0.45092  11.00000 -1.20000
AFIX 0
C22a  1    -0.87816 -0.26358 -0.05401  11.00000  0.02810  0.02993  0.03151 =
 0.00699  0.01036 -0.00105
AFIX 23
H22a  2    -0.92683 -0.36622 -0.05968  11.00000 -1.20000
H22b  2    -0.97567 -0.19178 -0.07167  11.00000 -1.20000
AFIX 0

O1b   3    -0.41870 -1.00608 -0.85945  11.00000  0.04964  0.01973  0.06888 =
 0.00768  0.02499  0.00902
AFIX 147
H1b   2    -0.49198 -1.07376 -0.86038  11.00000 -1.50000
AFIX 0
O4b   3    -0.43195 -0.59078 -0.88862  11.00000  0.02495  0.01916  0.02272 =
 0.00002  0.01037  0.00018
AFIX 9
O8b   3    -0.76628 -0.93928 -0.82039  11.00000  0.05160  0.02855  0.03871 =
 -0.01053  0.02288 -0.01908
H8b   2    -0.78834 -0.95739 -0.77035  11.00000 -1.50000
AFIX 0
O9b   3    -0.81130 -0.62863 -0.74059  11.00000  0.02237  0.03153  0.03185 =
 -0.00121  0.00912  0.00086
AFIX 147
H9b   2    -0.88399 -0.56482 -0.77430  11.00000 -1.50000
AFIX 0
O10b  3    -0.45509 -0.53903 -0.68262  11.00000  0.01838  0.01344  0.02036 =
 -0.00071  0.00265  0.00032
O15b  3    -0.37974 -0.28669 -0.72366  11.00000  0.01541  0.02076  0.02568 =
 0.00597  0.00115 -0.00272
O17b  3    -0.10274 -0.43052 -0.83804  11.00000  0.02734  0.03792  0.03936 =
 -0.00914  0.00830 -0.00152
AFIX 147
H17b  2    -0.20310 -0.46411 -0.86179  11.00000 -1.50000
AFIX 0
O18b  3     0.02520 -0.28985 -0.48932  11.00000  0.01562  0.03555  0.03457 =
 -0.00755 -0.00111 -0.00178
AFIX 147
H18b  2     0.11709 -0.33379 -0.49279  11.00000 -1.50000
AFIX 0
O19b  3    -0.26827 -0.51102 -0.43778  11.00000  0.03017  0.02508  0.02100 =
 0.00574  0.00501  0.00222
AFIX 8
H19b  2    -0.25361 -0.59060 -0.47700  11.00000 -1.50000
AFIX 0
O21b  3    -0.68485 -0.42700 -0.54114  11.00000  0.02552  0.03347  0.03202 =
 -0.00600  0.01293 -0.00226
AFIX 147
H21b  2    -0.71486 -0.50539 -0.58168  11.00000 -1.50000
AFIX 0
AFIX 6
O23b  3    -0.34956 -0.73832 -1.09225  11.00000  0.04818  0.03527  0.02641 =
 -0.00480  0.01477 -0.00751
H23b  2    -0.33923 -0.65336 -1.12175  11.00000 -1.50000
AFIX 0
C2b   1    -0.50594 -0.86251 -0.88536  11.00000  0.02824  0.01716  0.02512 =
 0.00213  0.00814  0.00199
AFIX 13
H2b   2    -0.57441 -0.86177 -0.97259  11.00000 -1.20000
AFIX 0
C3b   1    -0.35870 -0.74457 -0.87077  11.00000  0.02426  0.02079  0.02368 =
 -0.00139  0.00154  0.00366
AFIX 13
H3b   2    -0.28236 -0.75293 -0.78629  11.00000 -1.20000
AFIX 0
C5b   1    -0.54921 -0.55034 -0.81148  11.00000  0.01942  0.01476  0.01574 =
 0.00107  0.00384  0.00178
AFIX 13
H5b   2    -0.60076 -0.45020 -0.83859  11.00000 -1.20000
AFIX 0
C6b   1    -0.69839 -0.66735 -0.82427  11.00000  0.02167  0.02423  0.01448 =
 -0.00124  0.00328 -0.00124
AFIX 13
H6b   2    -0.76867 -0.66389 -0.91094  11.00000 -1.20000
AFIX 0
C7b   1    -0.62818 -0.82830 -0.79728  11.00000  0.02912  0.02032  0.02098 =
 -0.00087  0.00555 -0.00664
AFIX 13
H7b   2    -0.56221 -0.83557 -0.70961  11.00000 -1.20000
AFIX 0
C11b  1    -0.43346 -0.38455 -0.63520  11.00000  0.01847  0.01303  0.02222 =
 -0.00001  0.00393 -0.00060
C12b  1    -0.27814 -0.38291 -0.51857  11.00000  0.01913  0.01588  0.02205 =
 -0.00394  0.00574 -0.00060
AFIX 13
H12b  2    -0.29045 -0.29132 -0.46935  11.00000 -1.20000
AFIX 0
C13b  1    -0.11896 -0.35912 -0.57641  11.00000  0.01859  0.01780  0.02518 =
 -0.00440  0.00364 -0.00098
AFIX 3
H13b  2    -0.08211 -0.45687 -0.60638  11.00000 -1.20000
AFIX 0
C14b  1    -0.19206 -0.25348 -0.68799  11.00000  0.01821  0.01594  0.03131 =
 -0.00075  0.00697 -0.00249
AFIX 13
H14b  2    -0.17594 -0.14693 -0.65962  11.00000 -1.20000
AFIX 0
C16b  1    -0.11051 -0.27448 -0.79976  11.00000  0.02381  0.03543  0.03089 =
 0.00533  0.01067 -0.00275
AFIX 23
H16c  2     0.00813 -0.23305 -0.77940  11.00000 -1.20000
H16d  2    -0.17803 -0.21610 -0.86995  11.00000 -1.20000
AFIX 0
C20b  1    -0.60721 -0.32317 -0.61453  11.00000  0.02170  0.02177  0.02991 =
 -0.00314  0.00681  0.00066
AFIX 23
H20c  2    -0.68776 -0.30704 -0.69536  11.00000 -1.20000
H20d  2    -0.58737 -0.22525 -0.57174  11.00000 -1.20000
AFIX 0
C22b  1    -0.24833 -0.76364 -0.96836  11.00000  0.02811  0.02992  0.03151 =
 -0.00699  0.01036  0.00105
AFIX 23
H22c  2    -0.19968 -0.86629 -0.96265  11.00000 -1.20000
H22d  2    -0.15080 -0.69186 -0.95069  11.00000 -1.20000
AFIX 0
HKLF 4
END
